p cnf 35 110
3 -1 0
3 -2 0
1 2 -3 0
4 -5 -6 0
-4 5 -6 0
4 5 6 0
-4 -5 6 0
7 -2 -8 0
-7 2 -8 0
7 2 8 0
-7 -2 8 0
-9 -5 0
-9 -8 0
5 8 9 0
6 -9 -10 0
-6 9 -10 0
6 9 10 0
-6 -9 10 0
-10 11 -12 0
10 -11 -12 0
-10 -11 12 0
10 11 12 0
12 4 -13 0
-12 -4 -13 0
12 -4 13 0
-12 4 13 0
1 -14 0
-1 -14 0
-15 13 0
-15 -14 0
-13 14 15 0
-3 -15 -16 0
3 15 -16 0
-3 15 16 0
3 -15 16 0
17 -7 -18 0
-17 7 -18 0
17 7 18 0
-17 -7 18 0
19 -16 0
19 -18 0
16 18 -19 0
-21 -9 0
-21 -20 0
9 20 21 0
-22 2 0
-22 -7 0
-2 7 22 0
-23 -5 0
-23 -22 0
5 22 23 0
-25 23 0
-25 -24 0
-23 24 25 0
26 -1 0
26 -2 0
1 2 -26 0
27 26 0
27 -20 0
-26 20 -27 0
2 23 -28 0
-2 -23 -28 0
2 -23 28 0
-2 23 28 0
-29 27 0
-29 28 0
-27 -28 29 0
25 -29 -30 0
-25 29 -30 0
25 29 30 0
-25 -29 30 0
-31 -21 0
-31 30 0
21 -30 31 0
32 -20 -33 0
-32 20 -33 0
32 20 33 0
-32 -20 33 0
-34 31 0
-34 33 0
-31 -33 34 0
35 -19 0
35 -34 0
19 34 -35 0
-1 -34 30 -8 0
-27 35 9 -15 0
29 -32 0
12 -14 -33 0
8 -33 -19 24 0
-33 28 29 4 21 -8 0
-8 23 -15 0
13 24 0
24 -5 -27 21 25 0
-3 34 -33 -30 -5 0
-7 21 16 0
4 30 0
-1 -22 -14 -13 34 0
-35 -13 1 15 0
5 22 -32 24 -16 27 0
12 30 14 6 0
18 -32 14 -15 0
-18 27 6 0
15 13 18 0
-5 -19 26 -17 0
7 -11 13 -4 -6 0
11 8 20 0
-19 22 17 0
-34 29 0
34 31 19 29 0
35 0
